tsp_instances/TSP50/instance51.tsp
NODE_COORD_SECTION
0 13 10
1 88 74
2 172 87
3 164 73
4 184 85
5 26 23
6 127 183
7 137 77
8 147 50
9 82 4
10 26 131
11 115 153
12 41 126
13 79 100
14 15 132
15 33 88
16 169 114
17 111 71
18 19 40
19 185 198
20 55 109
21 58 197
22 144 101
23 94 120
24 57 119
25 82 22
26 119 46
27 131 135
28 129 14
29 140 162
30 101 194
31 172 89
32 51 54
33 76 57
34 81 67
35 154 165
36 176 183
37 38 38
38 15 177
39 127 119
40 137 88
41 30 20
42 99 157
43 164 193
44 78 149
45 199 116
46 63 21
47 175 28
48 125 192
49 17 196
