tsp_instances/TSP50/instance51.opt.tour
TOUR_SECTION
1
6
42
47
10
26
34
35
2
14
24
45
43
12
28
40
23
41
8
18
27
29
48
9
4
3
32
5
46
17
30
36
37
20
44
7
49
31
22
50
39
15
11
13
25
21
16
33
38
19
-1